105 300 34 63 224 120 23 120 69 159 287 36 123 264 30 64 285 62 175 145 184 270 205 294 59 216 88 222 1 84 108 142 88 193 257 11 12 279 183 133 189 169 220 11 184 1 126 169 63 1 65 246 22 269 291 132 184 79 105 184 214 212 78 53 104 34 116 168 64 298 52 253 218 271 263 101 272 141 21 34 193 86 31 266 54 21 97 290 151 253 173 64 165 2 117 20 35 284 187 151 281 238 103 198 209 117 50 